(set-info :source |printed by MathSAT|)
(declare-fun param_e7 () Bool)
(declare-fun call_firefly.invalid () Int)
(declare-fun call_firefly.ite29 () Int)
(declare-fun call_firefly.ite23 () Int)
(declare-fun call_firefly.ite28 () Int)
(declare-fun call_firefly.ite39 () Int)
(declare-fun call_excludes8.excludes () Bool)
(declare-fun call_firefly.flby5 () Int)
(declare-fun call_firefly.ite32 () Int)
(declare-fun param_e6 () Bool)
(declare-fun call_firefly.exclusive () Int)
(declare-fun call_firefly.ite25 () Int)
(declare-fun _R5_ () Bool)
(declare-fun call_firefly.flby3 () Int)
(declare-fun call_firefly.ite12 () Int)
(declare-fun procs () Int)
(declare-fun call_firefly.ite4 () Int)
(declare-fun call_firefly.ite27 () Int)
(declare-fun call_firefly.ite33 () Int)
(declare-fun call_firefly.ite13 () Int)
(declare-fun call_firefly.ite22 () Int)
(declare-fun call_firefly.ite35 () Int)
(declare-fun call_firefly.ite36 () Int)
(declare-fun call_firefly.ite31 () Int)
(declare-fun call_First.flby () Int)
(declare-fun call_firefly.ite17 () Int)
(declare-fun call_firefly.ite38 () Int)
(declare-fun call_firefly.garde8 () Bool)
(declare-fun env () Bool)
(declare-fun exclusive () Int)
(declare-fun param_e8 () Bool)
(declare-fun call_firefly.ite37 () Int)
(declare-fun call_First.First () Int)
(declare-fun _RT_ () Bool)
(declare-fun call_firefly.ite5 () Int)
(declare-fun call_firefly.garde3 () Bool)
(declare-fun call_firefly.ite2 () Int)
(declare-fun call_firefly.ite9 () Int)
(declare-fun call_firefly.mem_invalid () Int)
(declare-fun call_firefly.ite24 () Int)
(declare-fun call_firefly.ite6 () Int)
(declare-fun dirty () Int)
(declare-fun call_firefly.flby4 () Int)
(declare-fun param_e5 () Bool)
(declare-fun call_firefly.ite10 () Int)
(declare-fun param_e4 () Bool)
(declare-fun call_firefly.flby2 () Int)
(declare-fun param_e3 () Bool)
(declare-fun call_firefly.ite7 () Int)
(declare-fun call_firefly.ite34 () Int)
(declare-fun call_firefly.ite () Int)
(declare-fun call_Sofar.Sofar () Bool)
(declare-fun invalid () Int)
(declare-fun call_firefly.ite18 () Int)
(declare-fun call_firefly.garde6 () Bool)
(declare-fun call_firefly.ite14 () Int)
(declare-fun call_firefly.ite30 () Int)
(declare-fun call_firefly.ite3 () Int)
(declare-fun call_firefly.ite20 () Int)
(declare-fun call_firefly.ite11 () Int)
(declare-fun param_i_invalid () Int)
(declare-fun call_firefly.flby () Int)
(declare-fun param_e2 () Bool)
(declare-fun call_firefly.ite8 () Int)
(declare-fun _OK_ () Bool)
(declare-fun call_firefly.dirty () Int)
(declare-fun call_firefly.ite40 () Int)
(declare-fun call_firefly.ite21 () Int)
(declare-fun call_firefly.shared () Int)
(declare-fun shared () Int)
(declare-fun call_Sofar.flby () Bool)
(declare-fun call_firefly.ite19 () Int)
(declare-fun param_e1 () Bool)
(declare-fun call_firefly.ite26 () Int)
(declare-fun call_firefly.ite15 () Int)
(declare-fun call_firefly.ite16 () Int)
(define-fun .def_1168 () Bool (= call_First.flby call_First.First))
(define-fun .def_1166 () Bool (= call_Sofar.flby call_Sofar.Sofar))
(define-fun .def_982 () Bool (not param_e2))
(define-fun .def_963 () Bool (not param_e1))
(define-fun .def_1114 () Bool (and .def_963 .def_982))
(define-fun .def_1010 () Bool (not param_e3))
(define-fun .def_1115 () Bool (and .def_1010 .def_1114))
(define-fun .def_1035 () Bool (not param_e4))
(define-fun .def_1116 () Bool (and .def_1035 .def_1115))
(define-fun .def_1052 () Bool (not param_e5))
(define-fun .def_1117 () Bool (and .def_1052 .def_1116))
(define-fun .def_1070 () Bool (not param_e6))
(define-fun .def_1118 () Bool (and .def_1070 .def_1117))
(define-fun .def_873 () Bool (not param_e7))
(define-fun .def_1119 () Bool (and .def_873 .def_1118))
(define-fun .def_857 () Bool (not param_e8))
(define-fun .def_1155 () Bool (and .def_857 .def_1119))
(define-fun .def_1148 () Bool (and param_e1 .def_982))
(define-fun .def_1149 () Bool (and .def_1010 .def_1148))
(define-fun .def_1150 () Bool (and .def_1035 .def_1149))
(define-fun .def_1151 () Bool (and .def_1052 .def_1150))
(define-fun .def_1152 () Bool (and .def_1070 .def_1151))
(define-fun .def_1153 () Bool (and .def_873 .def_1152))
(define-fun .def_1154 () Bool (and .def_857 .def_1153))
(define-fun .def_1156 () Bool (or .def_1154 .def_1155))
(define-fun .def_1141 () Bool (and .def_963 param_e2))
(define-fun .def_1142 () Bool (and .def_1010 .def_1141))
(define-fun .def_1143 () Bool (and .def_1035 .def_1142))
(define-fun .def_1144 () Bool (and .def_1052 .def_1143))
(define-fun .def_1145 () Bool (and .def_1070 .def_1144))
(define-fun .def_1146 () Bool (and .def_873 .def_1145))
(define-fun .def_1147 () Bool (and .def_857 .def_1146))
(define-fun .def_1157 () Bool (or .def_1147 .def_1156))
(define-fun .def_1135 () Bool (and param_e3 .def_1114))
(define-fun .def_1136 () Bool (and .def_1035 .def_1135))
(define-fun .def_1137 () Bool (and .def_1052 .def_1136))
(define-fun .def_1138 () Bool (and .def_1070 .def_1137))
(define-fun .def_1139 () Bool (and .def_873 .def_1138))
(define-fun .def_1140 () Bool (and .def_857 .def_1139))
(define-fun .def_1158 () Bool (or .def_1140 .def_1157))
(define-fun .def_1130 () Bool (and param_e4 .def_1115))
(define-fun .def_1131 () Bool (and .def_1052 .def_1130))
(define-fun .def_1132 () Bool (and .def_1070 .def_1131))
(define-fun .def_1133 () Bool (and .def_873 .def_1132))
(define-fun .def_1134 () Bool (and .def_857 .def_1133))
(define-fun .def_1159 () Bool (or .def_1134 .def_1158))
(define-fun .def_1126 () Bool (and param_e5 .def_1116))
(define-fun .def_1127 () Bool (and .def_1070 .def_1126))
(define-fun .def_1128 () Bool (and .def_873 .def_1127))
(define-fun .def_1129 () Bool (and .def_857 .def_1128))
(define-fun .def_1160 () Bool (or .def_1129 .def_1159))
(define-fun .def_1123 () Bool (and param_e6 .def_1117))
(define-fun .def_1124 () Bool (and .def_873 .def_1123))
(define-fun .def_1125 () Bool (and .def_857 .def_1124))
(define-fun .def_1161 () Bool (or .def_1125 .def_1160))
(define-fun .def_1121 () Bool (and param_e7 .def_1118))
(define-fun .def_1122 () Bool (and .def_857 .def_1121))
(define-fun .def_1162 () Bool (or .def_1122 .def_1161))
(define-fun .def_1120 () Bool (and param_e8 .def_1119))
(define-fun .def_1163 () Bool (or .def_1120 .def_1162))
(define-fun .def_1164 () Bool (= call_excludes8.excludes .def_1163))
(define-fun .def_1112 () Bool (= call_firefly.flby call_firefly.mem_invalid))
(define-fun .def_1110 () Bool (= call_firefly.flby5 call_firefly.shared))
(define-fun .def_1108 () Bool (= call_firefly.flby4 call_firefly.exclusive))
(define-fun .def_1106 () Bool (= call_firefly.flby3 call_firefly.dirty))
(define-fun .def_1104 () Bool (= call_firefly.flby2 call_firefly.invalid))
(define-fun .def_1102 () Bool (= dirty call_firefly.dirty))
(define-fun .def_1099 () Bool (= invalid call_firefly.invalid))
(define-fun .def_1095 () Bool (and _R5_ _RT_))
(define-fun .def_1096 () Bool (= _OK_ .def_1095))
(define-fun .def_1090 () Bool (= call_firefly.ite36 call_firefly.ite37))
(define-fun .def_1091 () Bool (or param_e7 .def_1090))
(define-fun .def_1087 () Bool (= call_firefly.ite37 call_firefly.ite34))
(define-fun .def_1088 () Bool (or .def_873 .def_1087))
(define-fun .def_1083 () Bool (= call_firefly.ite8 call_firefly.ite5))
(define-fun .def_1084 () Bool (or .def_873 .def_1083))
(define-fun .def_1080 () Bool (= call_firefly.ite7 call_firefly.ite8))
(define-fun .def_1081 () Bool (or param_e7 .def_1080))
(define-fun .def_1085 () Bool (and .def_1081 .def_1084))
(define-fun .def_1089 () Bool (and .def_1085 .def_1088))
(define-fun .def_1092 () Bool (and .def_1089 .def_1091))
(define-fun .def_1076 () Bool (= call_firefly.ite17 call_firefly.ite18))
(define-fun .def_1077 () Bool (or param_e6 .def_1076))
(define-fun .def_1073 () Bool (= call_firefly.ite15 call_firefly.ite18))
(define-fun .def_1074 () Bool (or .def_1070 .def_1073))
(define-fun .def_1069 () Bool (= call_firefly.ite9 call_firefly.ite4))
(define-fun .def_1071 () Bool (or .def_1069 .def_1070))
(define-fun .def_1065 () Bool (= call_firefly.ite9 call_firefly.ite8))
(define-fun .def_1067 () Bool (or .def_1065 param_e6))
(define-fun .def_1072 () Bool (and .def_1067 .def_1071))
(define-fun .def_1075 () Bool (and .def_1072 .def_1074))
(define-fun .def_1078 () Bool (and .def_1075 .def_1077))
(define-fun .def_1060 () Bool (= call_firefly.ite38 call_firefly.ite37))
(define-fun .def_1061 () Bool (or param_e5 .def_1060))
(define-fun .def_1056 () Bool (= call_firefly.ite38 call_firefly.ite33))
(define-fun .def_1057 () Bool (or .def_1052 .def_1056))
(define-fun .def_1051 () Bool (= call_firefly.ite27 call_firefly.ite24))
(define-fun .def_1053 () Bool (or .def_1051 .def_1052))
(define-fun .def_1047 () Bool (= call_firefly.ite26 call_firefly.ite27))
(define-fun .def_1049 () Bool (or .def_1047 param_e5))
(define-fun .def_1054 () Bool (and .def_1049 .def_1053))
(define-fun .def_1058 () Bool (and .def_1054 .def_1057))
(define-fun .def_1062 () Bool (and .def_1058 .def_1061))
(define-fun .def_1043 () Bool (= call_firefly.ite28 call_firefly.ite27))
(define-fun .def_1044 () Bool (or param_e4 .def_1043))
(define-fun .def_1039 () Bool (= call_firefly.ite28 call_firefly.ite23))
(define-fun .def_1040 () Bool (or .def_1035 .def_1039))
(define-fun .def_1034 () Bool (= call_firefly.ite19 call_firefly.ite14))
(define-fun .def_1036 () Bool (or .def_1034 .def_1035))
(define-fun .def_1030 () Bool (= call_firefly.ite19 call_firefly.ite18))
(define-fun .def_1032 () Bool (or .def_1030 param_e4))
(define-fun .def_1037 () Bool (and .def_1032 .def_1036))
(define-fun .def_1041 () Bool (and .def_1037 .def_1040))
(define-fun .def_1045 () Bool (and .def_1041 .def_1044))
(define-fun .def_1025 () Bool (= call_firefly.ite39 call_firefly.ite38))
(define-fun .def_1026 () Bool (or param_e3 .def_1025))
(define-fun .def_1021 () Bool (= call_firefly.ite39 call_firefly.ite32))
(define-fun .def_1022 () Bool (or .def_1010 .def_1021))
(define-fun .def_1017 () Bool (= call_firefly.ite29 call_firefly.ite28))
(define-fun .def_1018 () Bool (or param_e3 .def_1017))
(define-fun .def_1013 () Bool (= call_firefly.ite22 call_firefly.ite29))
(define-fun .def_1014 () Bool (or .def_1010 .def_1013))
(define-fun .def_1009 () Bool (= call_firefly.ite10 call_firefly.ite3))
(define-fun .def_1011 () Bool (or .def_1009 .def_1010))
(define-fun .def_1005 () Bool (= call_firefly.ite10 call_firefly.ite9))
(define-fun .def_1007 () Bool (or .def_1005 param_e3))
(define-fun .def_1012 () Bool (and .def_1007 .def_1011))
(define-fun .def_1015 () Bool (and .def_1012 .def_1014))
(define-fun .def_1019 () Bool (and .def_1015 .def_1018))
(define-fun .def_1023 () Bool (and .def_1019 .def_1022))
(define-fun .def_1027 () Bool (and .def_1023 .def_1026))
(define-fun .def_1000 () Bool (= call_firefly.ite40 call_firefly.ite39))
(define-fun .def_1001 () Bool (or param_e2 .def_1000))
(define-fun .def_996 () Bool (= call_firefly.ite31 call_firefly.ite40))
(define-fun .def_997 () Bool (or .def_982 .def_996))
(define-fun .def_991 () Bool (= call_firefly.ite20 call_firefly.ite19))
(define-fun .def_992 () Bool (or param_e2 .def_991))
(define-fun .def_987 () Bool (= call_firefly.ite13 call_firefly.ite20))
(define-fun .def_988 () Bool (or .def_982 .def_987))
(define-fun .def_981 () Bool (= call_firefly.ite11 call_firefly.ite2))
(define-fun .def_983 () Bool (or .def_981 .def_982))
(define-fun .def_977 () Bool (= call_firefly.ite11 call_firefly.ite10))
(define-fun .def_979 () Bool (or .def_977 param_e2))
(define-fun .def_984 () Bool (and .def_979 .def_983))
(define-fun .def_989 () Bool (and .def_984 .def_988))
(define-fun .def_993 () Bool (and .def_989 .def_992))
(define-fun .def_998 () Bool (and .def_993 .def_997))
(define-fun .def_1002 () Bool (and .def_998 .def_1001))
(define-fun .def_972 () Bool (= call_firefly.ite30 call_firefly.ite29))
(define-fun .def_973 () Bool (or param_e1 .def_972))
(define-fun .def_968 () Bool (= call_firefly.ite21 call_firefly.ite30))
(define-fun .def_969 () Bool (or .def_963 .def_968))
(define-fun .def_962 () Bool (= call_firefly.ite12 call_firefly.ite))
(define-fun .def_964 () Bool (or .def_962 .def_963))
(define-fun .def_958 () Bool (= call_firefly.ite12 call_firefly.ite11))
(define-fun .def_960 () Bool (or .def_958 param_e1))
(define-fun .def_965 () Bool (and .def_960 .def_964))
(define-fun .def_970 () Bool (and .def_965 .def_969))
(define-fun .def_974 () Bool (and .def_970 .def_973))
(define-fun .def_954 () Bool (= env call_Sofar.Sofar))
(define-fun .def_951 () Bool (= procs call_First.First))
(define-fun .def_941 () Int (+ invalid dirty))
(define-fun .def_935 () Int (* (- 1) procs))
(define-fun .def_942 () Int (+ .def_935 .def_941))
(define-fun .def_943 () Int (+ shared .def_942))
(define-fun .def_944 () Int (+ exclusive .def_943))
(define-fun .def_945 () Bool (<= .def_944 0))
(define-fun .def_929 () Bool (not env))
(define-fun .def_946 () Bool (or .def_929 .def_945))
(define-fun .def_948 () Bool (= .def_946 _RT_))
(define-fun .def_927 () Bool (<= shared procs))
(define-fun .def_930 () Bool (or .def_927 .def_929))
(define-fun .def_932 () Bool (= .def_930 _R5_))
(define-fun .def_924 () Bool (= shared call_firefly.shared))
(define-fun .def_921 () Bool (= exclusive call_firefly.exclusive))
(define-fun .def_925 () Bool (and .def_921 .def_924))
(define-fun .def_933 () Bool (and .def_925 .def_932))
(define-fun .def_949 () Bool (and .def_933 .def_948))
(define-fun .def_952 () Bool (and .def_949 .def_951))
(define-fun .def_955 () Bool (and .def_952 .def_954))
(define-fun .def_975 () Bool (and .def_955 .def_974))
(define-fun .def_1003 () Bool (and .def_975 .def_1002))
(define-fun .def_1028 () Bool (and .def_1003 .def_1027))
(define-fun .def_1046 () Bool (and .def_1028 .def_1045))
(define-fun .def_1063 () Bool (and .def_1046 .def_1062))
(define-fun .def_1079 () Bool (and .def_1063 .def_1078))
(define-fun .def_1093 () Bool (and .def_1079 .def_1092))
(define-fun .def_1097 () Bool (and .def_1093 .def_1096))
(define-fun .def_1100 () Bool (and .def_1097 .def_1099))
(define-fun .def_1103 () Bool (and .def_1100 .def_1102))
(define-fun .def_1105 () Bool (and .def_1103 .def_1104))
(define-fun .def_1107 () Bool (and .def_1105 .def_1106))
(define-fun .def_1109 () Bool (and .def_1107 .def_1108))
(define-fun .def_1111 () Bool (and .def_1109 .def_1110))
(define-fun .def_1113 () Bool (and .def_1111 .def_1112))
(define-fun .def_1165 () Bool (and .def_1113 .def_1164))
(define-fun .def_1167 () Bool (and .def_1165 .def_1166))
(define-fun .def_1169 () Bool (and .def_1167 .def_1168))
(define-fun .def_917 () Bool (= param_i_invalid call_First.flby))
(define-fun .def_910 () Bool (<= 0 param_i_invalid))
(define-fun .def_912 () Bool (and .def_910 call_excludes8.excludes))
(define-fun .def_914 () Bool (= .def_912 call_Sofar.flby))
(define-fun .def_908 () Bool (= call_firefly.flby5 0))
(define-fun .def_905 () Bool (= call_firefly.flby4 0))
(define-fun .def_902 () Bool (= call_firefly.flby3 0))
(define-fun .def_899 () Bool (= call_firefly.flby2 call_firefly.mem_invalid))
(define-fun .def_895 () Bool (= param_i_invalid call_firefly.flby))
(define-fun .def_890 () Bool (= call_firefly.ite25 0))
(define-fun .def_889 () Bool (not call_firefly.garde8))
(define-fun .def_891 () Bool (or .def_889 .def_890))
(define-fun .def_885 () Bool (= call_firefly.ite15 1))
(define-fun .def_883 () Bool (not call_firefly.garde6))
(define-fun .def_886 () Bool (or .def_883 .def_885))
(define-fun .def_879 () Bool (= call_firefly.ite22 0))
(define-fun .def_877 () Bool (not call_firefly.garde3))
(define-fun .def_880 () Bool (or .def_877 .def_879))
(define-fun .def_871 () Bool (= call_firefly.ite16 call_firefly.ite17))
(define-fun .def_874 () Bool (or .def_871 .def_873))
(define-fun .def_866 () Bool (= call_firefly.ite35 call_firefly.ite36))
(define-fun .def_867 () Bool (or .def_857 .def_866))
(define-fun .def_861 () Bool (= call_firefly.ite6 call_firefly.ite7))
(define-fun .def_862 () Bool (or .def_857 .def_861))
(define-fun .def_855 () Bool (= call_firefly.ite25 call_firefly.ite26))
(define-fun .def_858 () Bool (or .def_855 .def_857))
(define-fun .def_863 () Bool (and .def_858 .def_862))
(define-fun .def_868 () Bool (and .def_863 .def_867))
(define-fun .def_875 () Bool (and .def_868 .def_874))
(define-fun .def_881 () Bool (and .def_875 .def_880))
(define-fun .def_887 () Bool (and .def_881 .def_886))
(define-fun .def_892 () Bool (and .def_887 .def_891))
(define-fun .def_896 () Bool (and .def_892 .def_895))
(define-fun .def_900 () Bool (and .def_896 .def_899))
(define-fun .def_903 () Bool (and .def_900 .def_902))
(define-fun .def_906 () Bool (and .def_903 .def_905))
(define-fun .def_909 () Bool (and .def_906 .def_908))
(define-fun .def_915 () Bool (and .def_909 .def_914))
(define-fun .def_918 () Bool (and .def_915 .def_917))
(define-fun .def_1170 () Bool (and .def_918 .def_1169))
(assert .def_1170)
